; ./seahorn/./sv_comp_flat_small/array-examples/standard_init2_false-unreach-call_ground.c.flat_000.smt2
(set-logic HORN)

(declare-fun |main_1| ( Int Int Int Int Int ) Bool)

(assert
  (forall ( (A Int) (B Int) (C Int) (D Int) (v_4 Int) ) 
    (=>
      (and
        (and true (= 0 v_4))
      )
      (main_1 v_4 A B C D)
    )
  )
)
(assert
  (forall ( (A Int) (B Int) (C Int) (D Int) (E Int) (F Int) (G Bool) (H Int) (I Bool) (J Bool) (K Int) (v_11 Int) (v_12 Int) ) 
    (=>
      (and
        (main_1 v_11 C D E F)
        (and (= 0 v_11)
     (or (= B K) (not J) (not G))
     (or (= K 0) (not J) (not G))
     (or (not I) (and G J))
     (= I true)
     (= A H)
     (= 1 v_12))
      )
      (main_1 v_12 C H E B)
    )
  )
)
(assert
  (forall ( (A Int) (B Bool) (C Int) (D Int) (E Int) (F Int) (G Int) (H Bool) (I Int) (J Int) (K Bool) (L Bool) (v_12 Int) (v_13 Int) ) 
    (=>
      (and
        (main_1 v_12 D E F G)
        (and (= 1 v_12)
     (= A (+ E (* 4 G)))
     (= J (+ 1 G))
     (or (= C I) (not H) (not L))
     (or (= I J) (not H) (not L))
     (or B (not H) (not L))
     (or (not K) (and H L))
     (= K true)
     (not (= (<= 100000 J) B))
     (= 1 v_13))
      )
      (main_1 v_13 D E F C)
    )
  )
)
(assert
  (forall ( (A Int) (B Int) (C Bool) (D Int) (E Int) (F Int) (G Int) (H Bool) (I Int) (J Bool) (K Bool) (L Bool) (M Bool) (N Int) (v_14 Int) (v_15 Int) ) 
    (=>
      (and
        (main_1 v_14 D E F G)
        (and (= 1 v_14)
     (= B (+ E (* 4 G)))
     (= I (+ 1 G))
     (or (not C) (not H) (not K))
     (or (= A N) (not M) (not J))
     (or (= N 0) (not M) (not J))
     (or (not L) (and J M))
     (or (not J) (and H K))
     (= L true)
     (not (= (<= 100000 I) C))
     (= 2 v_15))
      )
      (main_1 v_15 D E A G)
    )
  )
)
(assert
  (forall ( (A Int) (B Bool) (C Int) (D Int) (E Int) (F Int) (G Int) (H Bool) (I Int) (J Int) (K Bool) (L Bool) (v_12 Int) (v_13 Int) ) 
    (=>
      (and
        (main_1 v_12 D E F G)
        (and (= 2 v_12)
     (= A (+ E (* 4 F)))
     (= J (+ 1 F))
     (or (= C I) (not H) (not L))
     (or (= I J) (not H) (not L))
     (or B (not H) (not L))
     (or (not K) (and H L))
     (= K true)
     (not (= (<= 100000 J) B))
     (= 2 v_13))
      )
      (main_1 v_13 D E C G)
    )
  )
)
(assert
  (forall ( (A Int) (B Int) (C Bool) (D Int) (E Int) (F Int) (G Int) (H Bool) (I Int) (J Bool) (K Bool) (L Bool) (M Bool) (N Int) (v_14 Int) (v_15 Int) ) 
    (=>
      (and
        (main_1 v_14 D E F G)
        (and (= 2 v_14)
     (= B (+ E (* 4 F)))
     (= I (+ 1 F))
     (or (not C) (not H) (not K))
     (or (= A N) (not M) (not J))
     (or (= N 0) (not M) (not J))
     (or (not L) (and J M))
     (or (not J) (and H K))
     (= L true)
     (not (= (<= 100000 I) C))
     (= 3 v_15))
      )
      (main_1 v_15 A E F G)
    )
  )
)
(assert
  (forall ( (A Bool) (B Int) (C Int) (D Bool) (E Bool) (F Int) (G Int) (H Int) (I Int) (J Int) (K Bool) (L Int) (M Int) (N Bool) (O Bool) (v_15 Int) (v_16 Int) ) 
    (=>
      (and
        (main_1 v_15 G H I J)
        (and (= 3 v_15)
     (= D (= C 42))
     (not (= D E))
     (= B (+ H (* 4 G)))
     (= M (+ 1 G))
     (or (= F L) (not K) (not O))
     (or (= L M) (not K) (not O))
     (or (not E) (not K) (not O))
     (or (not N) (and K O))
     (= A true)
     (= N true)
     (not (= (<= 100000 G) A))
     (= 3 v_16))
      )
      (main_1 v_16 F H I J)
    )
  )
)
(assert
  (forall ( (A Bool) (B Int) (C Int) (D Bool) (E Bool) (F Int) (G Int) (H Int) (I Int) (J Bool) (K Int) (L Bool) (M Bool) (v_13 Int) (v_14 Int) ) 
    (=>
      (and
        (main_1 v_13 F G H I)
        (and (= 3 v_13)
     (= D (= C 42))
     (not (= D E))
     (= B (+ G (* 4 F)))
     (= K (+ 1 F))
     (or (not M) (not J) E)
     (or (not L) (and M J))
     (= A true)
     (= L true)
     (not (= (<= 100000 F) A))
     (= 4 v_14))
      )
      (main_1 v_14 F G H I)
    )
  )
)
(assert
  (forall ( (A Int) (B Int) (C Int) (D Int) (v_4 Int) ) 
    (=>
      (and
        (main_1 v_4 A B C D)
        (= 4 v_4)
      )
      false
    )
  )
)

(check-sat)
(exit)
